\* Problem: Unknown *\

Maximize
 obj: + 9900000 r5_z1_d1 + 100000 r5_z1_d2 + 1000000 r3_volGoal
 + 2000000 r4_volGoal + 3000000 r5_volGoal

Subject To
 r_0: + r3_volGoal + r3_z1_r4 <= 69.4804840190445
 r_1: + r4_volGoal + r4_z1_r5 - r3_z1_r4 <= 69.4804840190445
 r_2: + r5_volGoal + r5_z1_d2 + r5_z1_d1 - r4_z1_r5 <= 69.4804840190445
 r_3: + r5_z1_d1 = 10.7136
 r_4: + r5_z1_d2 <= 267837.3216
 r_5: + r5_z1_d1 <= 68.44
 r_6: + r3_volGoal = 60.8478520571335
 r_7: + r4_volGoal = 68.44
 r_8: + r5_volGoal = 68.44

End
